baFast/validateCut.gr
p tw 10 22
1 2
1 10
1 8
2 3
2 4
2 10
2 9
3 4
3 10
4 10
4 5
4 9
5 9
5 6
6 9
6 8
6 7
7 9
7 8
8 9
8 10
9 10
