baFast/validateCut.td
s td 22 5 10
b 1 2 3 4 10
b 2 6 7 8 9
b 3 1 2 8 10
b 4 2 4 8 9 10
b 5 4 5 8 9
b 6 5 6 8 9
b 7 6 8 9
b 8 2 4 9 10
b 9 2 4 10
b 10 2 4 8 9 10
b 11 2 4 8 9 10
b 12 4 8 9
b 13 4 8 9 10
b 14 2 8 10
b 15 2 8 9 10
b 16 1 2 8
b 17 1 2
b 18 1
b 19 5 8 9
b 20 6 7 8
b 21 6 7
b 22 6
1 9
2 20
3 16
4 10
4 11
5 19
6 7
2 7
4 8
8 9
10 13
11 15
5 12
12 13
3 14
14 15
16 17
17 18
6 19
20 21
21 22
